SYSTEM = Ag
PREC = LOW
ENCUT = 400
EDIFF = 1e-4
EDIFFG = -0.05
IBRION = 2
ISIF = 2
NSW = 100
ISMEAR = 1
SIGMA = 0.2
POTIM = 0.5
LCHARG = FALSE
LWAVE = FALSE
ISPIN = 1
NELM = 100
ISYM = 0
NCORE = 6
